(set-logic BV) (define-fun origCir ((n34 Bool) (n115 Bool) (n121 Bool) (n111 Bool) (i_3 Bool)) Bool (and (and n121 (not (and (not n115) n34))) (and (not n111) i_3))) (synth-fun skel ((n34 Bool) (n115 Bool) (n121 Bool) (n111 Bool) (i_3 Bool)) Bool) (declare-var n34 Bool) (declare-var n115 Bool) (declare-var n121 Bool) (declare-var n111 Bool) (declare-var i_3 Bool) (constraint (= (origCir n34 n115 n121 n111 i_3) (skel n34 n115 n121 n111 i_3))) (check-synth)
